letting n =  10
letting blocks =  [[1, 3], [1, 4], [1, 6], [1, 9], [2, 2], [2, 5], [2, 9], [3, 1], [3, 2], [3, 5], [3, 6], [3, 8], [3, 10], [4, 2], [4, 5], [4, 7], [4, 8], [4, 9], [5, 1], [5, 3], [5, 6], [5, 8], [5, 9], [5, 10], [6, 1], [6, 2], [6, 4], [6, 5], [6, 8], [6, 10], [7, 4], [7, 6], [7, 7], [7, 10], [8, 3], [8, 8], [8, 9], [9, 1], [9, 3], [9, 4], [9, 5], [9, 7], [9, 10], [10, 3], [10, 5], [10, 6], [10, 9], [10, 10]]
